NAME : 10_3_3_3_(04).dat
COMMENT : Henke, Speranza, Wäscher, 2015
TYPE : MCVRP
DIMENSION : 11
EDGE_WEIGHT_TYPE : DISTANCE_MATRIX
CAPACITY : 1000
VEHICLES : 2
PRODUCT TYPES : 3
COMPARTMENTS : 3
NODE_COORD_SECTION
1 50 50
2 6.79 43.52
3 87.32 9.76
4 3.45 52.46
5 7.5 44.55
6 31.88 34.11
7 96.35 60.38
8 17.83 38.5
9 8.77 47.81
10 83.38 86.45
11 95.71 37.35
DEMAND_SECTION
1 0 0 0
2 58 55 20
3 94 62 10
4 74 7 42
5 63 64 18
6 101 20 10
7 82 49 48
8 28 47 21
9 66 35 28
10 92 6 27
11 16 59 44
DEPOT_SECTION
1
EOF